words_hard_train/3557.qaiger
aag 69 17 0 1 52
2
4
8
12
16
20
24
32
36
44
54
62
72
80
88
118
122
138
6 3 5
10 6 9
14 10 13
18 14 17
22 18 21
26 23 24
28 22 25
30 27 29
34 30 33
38 29 36
40 28 37
42 39 41
46 42 45
48 35 47
50 15 16
52 51 19
56 53 54
58 19 20
60 59 23
64 61 62
66 57 65
68 11 12
70 69 15
74 72 8
76 75 11
78 73 9
82 79 80
84 82 7
86 76 85
90 87 88
92 70 91
94 86 89
96 93 95
98 52 55
100 96 99
102 66 101
104 60 63
106 103 105
108 31 32
110 107 109
112 48 111
114 43 44
116 113 115
120 116 118
124 40 122
126 121 125
128 117 119
130 41 123
132 129 131
134 126 133
136 120 124
138 135 137
i0 1 x2[0]
i1 2 y2[0]
i2 1 x2[1]
i3 1 x2[2]
i4 1 x2[3]
i5 1 x2[4]
i6 1 x2[5]
i7 1 x1[5]
i8 1 x2[6]
i9 1 x1[6]
i10 1 x1[3]
i11 1 x1[4]
i12 1 x1[1]
i13 1 x1[0]
i14 1 x1[2]
i15 1 x2[7]
i16 1 x1[7]
o0 bv[0]
c
simplified
  >=
    invert
      1 x1
    or
      and
        2 y2
        1
      1 x2
