words_hard_train/3557.qaiger.qdimacs
p cnf 69 157
a 1 4 36 6 8 40 10 59 12 44 16 18 22 27 61 31 0
e 2 3 5 7 9 11 13 14 15 17 19 20 21 23 24 25 26 28 29 30 32 33 34 35 37 38 39 41 42 43 45 46 47 48 49 50 51 52 53 54 55 56 57 58 60 62 63 64 65 66 67 68 69 0
1 2 3 0
-1 -3 0
-2 -3 0
-3 4 5 0
3 -5 0
-4 -5 0
-5 6 7 0
5 -7 0
-6 -7 0
-7 8 9 0
7 -9 0
-8 -9 0
-9 10 11 0
9 -11 0
-10 -11 0
11 -12 13 0
-11 -13 0
12 -13 0
-11 12 14 0
11 -14 0
-12 -14 0
13 14 15 0
-13 -15 0
-14 -15 0
-15 16 17 0
15 -17 0
-16 -17 0
14 -18 19 0
-14 -19 0
18 -19 0
-14 18 20 0
14 -20 0
-18 -20 0
19 20 21 0
-19 -21 0
-20 -21 0
-21 22 23 0
21 -23 0
-22 -23 0
17 23 24 0
-17 -24 0
-23 -24 0
7 -8 25 0
-7 -25 0
8 -25 0
25 9 26 0
-25 -26 0
-9 -26 0
26 -27 28 0
-26 -28 0
27 -28 0
9 -10 29 0
-9 -29 0
10 -29 0
29 11 30 0
-29 -30 0
-11 -30 0
30 -31 32 0
-30 -32 0
31 -32 0
28 32 33 0
-28 -33 0
-32 -33 0
5 -6 34 0
-5 -34 0
6 -34 0
34 7 35 0
-34 -35 0
-7 -35 0
-36 -4 37 0
36 -37 0
4 -37 0
37 5 38 0
-37 -38 0
-5 -38 0
36 4 39 0
-36 -39 0
-4 -39 0
39 -40 41 0
-39 -41 0
40 -41 0
-41 3 42 0
41 -42 0
-3 -42 0
-38 42 43 0
38 -43 0
-42 -43 0
43 -44 45 0
-43 -45 0
44 -45 0
-35 45 46 0
35 -46 0
-45 -46 0
-43 44 47 0
43 -47 0
-44 -47 0
46 47 48 0
-46 -48 0
-47 -48 0
-26 27 49 0
26 -49 0
-27 -49 0
-48 49 50 0
48 -50 0
-49 -50 0
-33 50 51 0
33 -51 0
-50 -51 0
-30 31 52 0
30 -52 0
-31 -52 0
51 52 53 0
-51 -53 0
-52 -53 0
15 -16 54 0
-15 -54 0
16 -54 0
53 54 55 0
-53 -55 0
-54 -55 0
-24 55 56 0
24 -56 0
-55 -56 0
21 -22 57 0
-21 -57 0
22 -57 0
56 57 58 0
-56 -58 0
-57 -58 0
-58 -59 60 0
58 -60 0
59 -60 0
-20 -61 62 0
20 -62 0
61 -62 0
60 62 63 0
-60 -63 0
-62 -63 0
58 59 64 0
-58 -64 0
-59 -64 0
20 61 65 0
-20 -65 0
-61 -65 0
64 65 66 0
-64 -66 0
-65 -66 0
-63 66 67 0
63 -67 0
-66 -67 0
-60 -62 68 0
60 -68 0
62 -68 0
67 68 69 0
-67 -69 0
-68 -69 0
69 0
